NAME: ../File/prFile/tspFile/tsp_file11.tsp
COMMENT: TSP file generated by Python
TYPE: TSP
DIMENSION: 30
EDGE_WEIGHT_TYPE: EUC_2D
NODE_COORD_SECTION
1 96 9
2 54 26
3 83 70
4 70 91
5 39 83
6 40 25
7 31 100
8 71 7
9 63 69
10 19 6
11 33 37
12 29 16
13 30 57
14 42 7
15 67 54
16 29 40
17 40 75
18 22 71
19 25 97
20 15 56
21 93 51
22 18 40
23 97 24
24 7 99
25 21 63
26 73 44
27 44 52
28 75 49
29 74 99
30 59 62
EOF
